
Gurobi 10.0.2 (linux64) logging started Tue Jun 11 06:25:42 2024

Set parameter Username
Academic license - for non-commercial use only - expires 2025-02-11
Warning for adding constraints: zero or small (< 1e-13) coefficients, ignored
